clingo version 5.2.2
Reading from ...oblems/asp/ancestor/instances/0001.asp ...
Solving...
Answer: 1
husband_of(greco,pugliese) husband_of(pietro,famularo) husband_of(luigi,nik) husband_of(franze,salvo) husband_of(faber,tiano) husband_of(girsch,ursino) husband_of(salerno,perri) married(greco,pugliese) married(pietro,famularo) married(luigi,nik) married(franze,salvo) married(faber,tiano) married(girsch,ursino) married(salerno,perri) married(pugliese,greco) married(famularo,pietro) married(nik,luigi) married(salvo,franze) married(tiano,faber) married(ursino,girsch) married(perri,salerno) married(sergio,sacca) married(palopoli,nigro) married(rullo,frank) married(bucca,pupo) married(stadler,dorn) married(reith,milos) married(sacca,sergio) married(nigro,palopoli) married(frank,rullo) married(pupo,bucca) married(dorn,stadler) married(milos,reith) wife_of(sergio,sacca) wife_of(palopoli,nigro) wife_of(rullo,frank) wife_of(bucca,pupo) wife_of(stadler,dorn) wife_of(reith,milos) father_of(greco,sergio) father_of(pietro,frank) father_of(luigi,rullo) father_of(luigi,palopoli) father_of(sacca,franze) father_of(nigro,girsch) father_of(nigro,faber) father_of(frank,salvo) father_of(frank,tiano) father_of(pupo,ursino) father_of(franze,dorn) father_of(dorn,havelka) father_of(dorn,stary) parent(greco,sergio) parent(pietro,frank) parent(luigi,rullo) parent(luigi,palopoli) parent(sacca,franze) parent(nigro,girsch) parent(nigro,faber) parent(frank,salvo) parent(frank,tiano) parent(pupo,ursino) parent(franze,dorn) parent(dorn,havelka) parent(dorn,stary) parent(pugliese,nigro) parent(nik,pupo) parent(rullo,salerno) parent(bucca,perri) parent(tiano,milos) parent(ursino,stadler) parent(perri,reith) parent(reith,eiter) parent(pugliese,sergio) parent(famularo,frank) parent(nik,rullo) parent(nik,palopoli) parent(sergio,franze) parent(palopoli,girsch) parent(palopoli,faber) parent(rullo,salvo) parent(rullo,tiano) parent(bucca,ursino) parent(salvo,dorn) parent(stadler,havelka) parent(stadler,stary) parent(greco,nigro) parent(luigi,pupo) parent(frank,salerno) parent(pupo,perri) parent(faber,milos) parent(girsch,stadler) parent(salerno,reith) parent(milos,eiter) mother_of(pugliese,nigro) mother_of(nik,pupo) mother_of(rullo,salerno) mother_of(bucca,perri) mother_of(tiano,milos) mother_of(ursino,stadler) mother_of(perri,reith) mother_of(reith,eiter) ancestor(greco,sergio) ancestor(pietro,frank) ancestor(luigi,rullo) ancestor(luigi,palopoli) ancestor(sacca,franze) ancestor(nigro,girsch) ancestor(nigro,faber) ancestor(frank,salvo) ancestor(frank,tiano) ancestor(pupo,ursino) ancestor(franze,dorn) ancestor(dorn,havelka) ancestor(dorn,stary) ancestor(pugliese,nigro) ancestor(nik,pupo) ancestor(rullo,salerno) ancestor(bucca,perri) ancestor(tiano,milos) ancestor(ursino,stadler) ancestor(perri,reith) ancestor(reith,eiter) ancestor(pugliese,sergio) ancestor(famularo,frank) ancestor(nik,rullo) ancestor(nik,palopoli) ancestor(sergio,franze) ancestor(palopoli,girsch) ancestor(palopoli,faber) ancestor(rullo,salvo) ancestor(rullo,tiano) ancestor(bucca,ursino) ancestor(salvo,dorn) ancestor(stadler,havelka) ancestor(stadler,stary) ancestor(greco,nigro) ancestor(luigi,pupo) ancestor(frank,salerno) ancestor(pupo,perri) ancestor(faber,milos) ancestor(girsch,stadler) ancestor(salerno,reith) ancestor(milos,eiter) ancestor(tiano,eiter) ancestor(faber,eiter) ancestor(rullo,reith) ancestor(frank,reith) ancestor(nigro,stadler) ancestor(palopoli,stadler) ancestor(nigro,milos) ancestor(palopoli,milos) ancestor(nik,perri) ancestor(luigi,perri) ancestor(pietro,salerno) ancestor(famularo,salerno) ancestor(ursino,stary) ancestor(girsch,stary) ancestor(ursino,havelka) ancestor(girsch,havelka) ancestor(frank,dorn) ancestor(rullo,dorn) ancestor(luigi,tiano) ancestor(nik,tiano) ancestor(luigi,salvo) ancestor(nik,salvo) ancestor(luigi,faber) ancestor(nik,faber) ancestor(luigi,girsch) ancestor(nik,girsch) ancestor(greco,franze) ancestor(pugliese,franze) ancestor(perri,eiter) ancestor(salerno,eiter) ancestor(bucca,reith) ancestor(pupo,reith) ancestor(pupo,stadler) ancestor(bucca,stadler) ancestor(frank,milos) ancestor(rullo,milos) ancestor(luigi,salerno) ancestor(nik,salerno) ancestor(franze,stary) ancestor(salvo,stary) ancestor(franze,havelka) ancestor(salvo,havelka) ancestor(sacca,dorn) ancestor(sergio,dorn) ancestor(nik,ursino) ancestor(luigi,ursino) ancestor(pietro,tiano) ancestor(famularo,tiano) ancestor(pietro,salvo) ancestor(famularo,salvo) ancestor(pugliese,faber) ancestor(greco,faber) ancestor(pugliese,girsch) ancestor(greco,girsch) ancestor(greco,dorn) ancestor(pugliese,dorn) ancestor(frank,havelka) ancestor(rullo,havelka) ancestor(luigi,havelka) ancestor(nik,havelka) ancestor(pietro,havelka) ancestor(famularo,havelka) ancestor(sacca,havelka) ancestor(sergio,havelka) ancestor(greco,havelka) ancestor(pugliese,havelka) ancestor(frank,stary) ancestor(rullo,stary) ancestor(luigi,stary) ancestor(nik,stary) ancestor(pietro,stary) ancestor(famularo,stary) ancestor(sacca,stary) ancestor(sergio,stary) ancestor(greco,stary) ancestor(pugliese,stary) ancestor(luigi,milos) ancestor(nik,milos) ancestor(pietro,milos) ancestor(famularo,milos) ancestor(nik,stadler) ancestor(luigi,stadler) ancestor(nik,reith) ancestor(luigi,reith) ancestor(rullo,eiter) ancestor(frank,eiter) ancestor(pietro,eiter) ancestor(famularo,eiter) ancestor(luigi,eiter) ancestor(nik,eiter) ancestor(bucca,eiter) ancestor(pupo,eiter) ancestor(luigi,dorn) ancestor(nik,dorn) ancestor(pietro,dorn) ancestor(famularo,dorn) ancestor(nigro,havelka) ancestor(palopoli,havelka) ancestor(pupo,havelka) ancestor(bucca,havelka) ancestor(nigro,stary) ancestor(palopoli,stary) ancestor(pupo,stary) ancestor(bucca,stary) ancestor(pugliese,milos) ancestor(greco,milos) ancestor(pugliese,stadler) ancestor(greco,stadler) ancestor(pietro,reith) ancestor(famularo,reith) ancestor(nigro,eiter) ancestor(palopoli,eiter) ancestor(pugliese,eiter) ancestor(greco,eiter)
SATISFIABLE

Models       : 1
Calls        : 1
Time         : 0.007s (Solving: 0.00s 1st Model: 0.00s Unsat: 0.00s)
CPU Time     : 0.007s
